c cnf generated by mark.reason.ac.CompilerAce written by Mark Chavira
c
c Following are a few statistics:
c
c     Number of potentials               : 9
c     Number of constant potentials      : 0
c     Number of root potentials          : 1
c     Number of zero-one root potentials : 0
c     Number of literals                 : 136
c
p cnf 52 52
1 2 0
-2 -1 0
-2 3 0
-1 4 0
5 6 0
-6 -5 0
-6 -1 7 0
-5 -2 8 0
-6 -2 9 0
-5 -1 10 0
11 12 0
-12 -11 0
-11 -2 13 0
-12 -1 14 0
-11 -1 15 0
-12 -2 16 0
17 18 0
-18 -17 0
-17 -2 19 0
-17 -1 20 0
-18 -1 21 0
-18 -2 22 0
23 24 0
-24 -23 0
-23 -2 25 0
-23 -1 26 0
-24 -1 27 0
-24 -2 28 0
29 30 0
-30 -29 0
-30 -1 31 0
-30 -2 32 0
-29 -2 33 0
-29 -1 34 0
35 36 0
-36 -35 0
-35 -2 37 0
-36 -1 38 0
-35 -1 39 0
-36 -2 40 0
41 42 0
-42 -41 0
-42 -1 43 0
-42 -2 44 0
-41 -2 45 0
-41 -1 46 0
47 48 0
-48 -47 0
-48 -1 49 0
-47 -2 50 0
-48 -2 51 0
-47 -1 52 0
